data/instances/vrp_files/train_38.vrp
NAME : 38
COMMENT : Generated instance No. 38
TYPE : CVRP
DIMENSION : 21
EDGE_WEIGHT_TYPE : EUC_2D
CAPACITY : 30
NODE_COORD_SECTION
 1 78 239
 2 546 380
 3 976 110
 4 422 42
 5 739 918
 6 280 858
 7 292 910
 8 753 804
 9 18 962
 10 726 304
 11 829 281
 12 872 112
 13 703 540
 14 96 241
 15 12 468
 16 301 598
 17 297 299
 18 743 48
 19 902 852
 20 667 593
 21 892 185
DEMAND_SECTION
1 0
2 1
3 3
4 2
5 5
6 5
7 5
8 4
9 5
10 3
11 1
12 5
13 9
14 9
15 4
16 3
17 1
18 2
19 8
20 1
21 8
DEPOT_SECTION
 1
 -1
EOF